sat
(:SPACER-cex-depth                 3
 :SPACER-expand-pob-undef          3
 :SPACER-inductive-gen             3
 :SPACER-inductive-gen-weaken-fail 3
 :SPACER-max-depth                 3
 :SPACER-max-query-lvl             3
 :SPACER-num-active-lemmas         4
 :SPACER-num-invariants            1
 :SPACER-num-is_invariant          9
 :SPACER-num-lemmas                6
 :SPACER-num-pobs                  5
 :SPACER-num-propagations          4
 :SPACER-num-queries               6
 :SPACER-num-reach-queries         3
 :SPACER-num-reuse-reach-facts     1
 :added-eqs                        1134
 :arith-assert-diseq               158
 :arith-assert-lower               624
 :arith-assert-upper               578
 :arith-bound-prop                 244
 :arith-conflicts                  16
 :arith-eq-adapter                 212
 :arith-fixed-eqs                  190
 :arith-gcd-conflicts              2
 :arith-gcd-tests                  2
 :arith-num-rows                   38
 :arith-offset-eqs                 96
 :arith-pivots                     168
 :arith-row-summations             630
 :arith-tableau-max-columns        78
 :arith-tableau-max-rows           38
 :conflicts                        66
 :decisions                        244
 :del-clause                       608
 :final-checks                     34
 :iuc_solver.num_proxies           10
 :max-memory                       30.69
 :memory                           30.37
 :minimized-lits                   8
 :mk-bool-var                      1094
 :mk-clause                        1160
 :num-allocs                       5076938
 :num-checks                       68
 :pool_solver.checks               34
 :pool_solver.checks.sat           9
 :pool_solver.checks.undef         7
 :propagations                     1630
 :rlimit-count                     14957
 :time                             0.03
 :time.pool_solver.smt.total       0.01
 :time.pool_solver.smt.total.sat   0.00
 :time.pool_solver.smt.total.undef 0.00
 :time.spacer.init_rules           0.00
 :time.spacer.solve                0.02
 :time.spacer.solve.propagate      0.00
 :time.spacer.solve.reach          0.01
 :time.spacer.solve.reach.children 0.00
 :time.spacer.solve.reach.cluster  0.00
 :time.spacer.solve.reach.is-reach 0.00)
(:max-memory   30.69
 :memory       30.37
 :num-allocs   5076938
 :rlimit-count 14957
 :time         0.03
 :total-time   0.05)
